NAME : X-n317-k53
COMMENT : "Generated by Uchoa, Pecin, Pessoa, Poggi, Subramanian, and Vidal (2013)"
TYPE : CVRP
DIMENSION : 317
EDGE_WEIGHT_TYPE : EUC_2D
EDGE_WEIGHT_FORMAT : 
CAPACITY : 6
DISTANCE : 1.79769e+308
SERVICE_TIME : 0
NODE_COORD_SECTION
1 0 0
2 971 544
3 564 976
4 266 4
5 395 95
6 379 271
7 936 538
8 980 578
9 242 92
10 476 74
11 247 159
12 359 108
13 473 941
14 490 947
15 548 950
16 389 864
17 916 664
18 212 91
19 415 182
20 961 553
21 423 232
22 596 931
23 955 566
24 534 93
25 252 6
26 950 580
27 517 950
28 942 618
29 636 981
30 629 809
31 508 35
32 108 130
33 391 19
34 208 183
35 991 680
36 428 48
37 272 220
38 931 581
39 327 128
40 966 514
41 313 202
42 267 1
43 404 925
44 985 594
45 895 429
46 348 12
47 316 258
48 238 20
49 970 490
50 854 586
51 293 104
52 628 919
53 880 597
54 353 241
55 753 728
56 291 93
57 993 439
58 382 125
59 230 36
60 984 471
61 489 23
62 277 137
63 593 171
64 378 204
65 411 87
66 207 85
67 538 991
68 906 631
69 343 72
70 445 68
71 673 268
72 576 951
73 388 66
74 953 504
75 434 145
76 530 11
77 632 879
78 541 968
79 353 851
80 629 868
81 593 896
82 936 411
83 272 40
84 276 93
85 469 169
86 359 894
87 548 998
88 52 69
89 397 58
90 507 145
91 451 162
92 646 996
93 532 906
94 220 126
95 536 831
96 482 212
97 137 53
98 511 991
99 978 506
100 300 111
101 907 711
102 908 488
103 222 137
104 266 48
105 423 67
106 268 125
107 434 25
108 548 982
109 511 888
110 371 256
111 440 179
112 331 82
113 965 439
114 545 968
115 447 40
116 785 664
117 915 669
118 468 98
119 247 6
120 271 70
121 260 110
122 902 679
123 926 874
124 587 988
125 368 419
126 351 158
127 967 685
128 559 968
129 278 56
130 877 507
131 353 164
132 984 540
133 380 89
134 886 376
135 943 408
136 420 204
137 386 78
138 219 18
139 497 961
140 542 965
141 718 869
142 297 45
143 414 69
144 606 959
145 575 99
146 330 101
147 364 74
148 257 22
149 371 64
150 600 994
151 951 536
152 534 896
153 297 96
154 467 149
155 438 917
156 385 883
157 233 239
158 481 945
159 414 128
160 602 752
161 592 151
162 267 82
163 587 946
164 728 991
165 242 136
166 292 9
167 916 480
168 494 918
169 2 149
170 24 105
171 933 577
172 227 49
173 651 947
174 991 512
175 805 704
176 253 66
177 628 824
178 199 18
179 833 534
180 633 864
181 343 42
182 565 991
183 603 996
184 404 30
185 434 92
186 822 465
187 393 81
188 351 78
189 390 56
190 536 967
191 553 985
192 652 868
193 472 900
194 824 545
195 370 189
196 196 21
197 524 974
198 590 878
199 551 951
200 480 48
201 384 185
202 327 228
203 567 966
204 537 964
205 929 577
206 491 141
207 336 12
208 496 953
209 149 57
210 394 63
211 250 252
212 238 63
213 245 222
214 263 50
215 231 37
216 512 13
217 868 481
218 994 635
219 697 87
220 989 535
221 462 954
222 355 240
223 335 89
224 817 544
225 501 154
226 196 66
227 389 36
228 413 62
229 277 111
230 245 95
231 878 469
232 407 109
233 326 52
234 999 601
235 974 433
236 578 969
237 548 784
238 519 21
239 436 135
240 986 436
241 483 19
242 420 197
243 417 122
244 825 609
245 347 96
246 967 530
247 749 542
248 271 20
249 307 72
250 420 130
251 821 398
252 147 97
253 950 512
254 394 190
255 962 584
256 934 530
257 611 926
258 323 185
259 966 530
260 378 189
261 334 189
262 340 77
263 265 136
264 303 315
265 533 852
266 562 977
267 995 477
268 862 649
269 379 190
270 935 565
271 178 11
272 465 237
273 214 179
274 479 913
275 903 530
276 379 102
277 268 8
278 922 511
279 403 33
280 289 71
281 474 196
282 374 90
283 557 25
284 957 581
285 134 103
286 554 116
287 392 111
288 200 392
289 929 514
290 521 905
291 341 210
292 394 77
293 339 130
294 938 635
295 315 258
296 970 710
297 376 48
298 402 128
299 954 450
300 528 302
301 433 137
302 353 113
303 611 991
304 235 12
305 544 988
306 958 520
307 521 76
308 334 23
309 264 63
310 591 913
311 532 972
312 589 956
313 568 972
314 983 621
315 418 817
316 312 39
317 334 176
PICKUP_AND_DELIVERY_SECTION
1 0 0 0 0 0 0
2 0 0 0 0 0 1
3 0 0 0 0 1 0
4 0 0 0 0 0 1
5 0 0 0 0 1 0
6 0 0 0 0 0 1
7 0 0 0 0 1 0
8 0 0 0 0 0 1
9 0 0 0 0 1 0
10 0 0 0 0 0 1
11 0 0 0 0 1 0
12 0 0 0 0 0 1
13 0 0 0 0 1 0
14 0 0 0 0 0 1
15 0 0 0 0 1 0
16 0 0 0 0 0 1
17 0 0 0 0 1 0
18 0 0 0 0 0 1
19 0 0 0 0 1 0
20 0 0 0 0 0 1
21 0 0 0 0 1 0
22 0 0 0 0 0 1
23 0 0 0 0 1 0
24 0 0 0 0 0 1
25 0 0 0 0 1 0
26 0 0 0 0 0 1
27 0 0 0 0 1 0
28 0 0 0 0 0 1
29 0 0 0 0 1 0
30 0 0 0 0 0 1
31 0 0 0 0 1 0
32 0 0 0 0 0 1
33 0 0 0 0 1 0
34 0 0 0 0 0 1
35 0 0 0 0 1 0
36 0 0 0 0 0 1
37 0 0 0 0 1 0
38 0 0 0 0 0 1
39 0 0 0 0 1 0
40 0 0 0 0 0 1
41 0 0 0 0 1 0
42 0 0 0 0 0 1
43 0 0 0 0 1 0
44 0 0 0 0 0 1
45 0 0 0 0 1 0
46 0 0 0 0 0 1
47 0 0 0 0 1 0
48 0 0 0 0 0 1
49 0 0 0 0 1 0
50 0 0 0 0 0 1
51 0 0 0 0 1 0
52 0 0 0 0 0 1
53 0 0 0 0 1 0
54 0 0 0 0 0 1
55 0 0 0 0 1 0
56 0 0 0 0 0 1
57 0 0 0 0 1 0
58 0 0 0 0 0 1
59 0 0 0 0 1 0
60 0 0 0 0 0 1
61 0 0 0 0 1 0
62 0 0 0 0 0 1
63 0 0 0 0 1 0
64 0 0 0 0 0 1
65 0 0 0 0 1 0
66 0 0 0 0 0 1
67 0 0 0 0 1 0
68 0 0 0 0 0 1
69 0 0 0 0 1 0
70 0 0 0 0 0 1
71 0 0 0 0 1 0
72 0 0 0 0 0 1
73 0 0 0 0 1 0
74 0 0 0 0 0 1
75 0 0 0 0 1 0
76 0 0 0 0 0 1
77 0 0 0 0 1 0
78 0 0 0 0 0 1
79 0 0 0 0 1 0
80 0 0 0 0 0 1
81 0 0 0 0 1 0
82 0 0 0 0 0 1
83 0 0 0 0 1 0
84 0 0 0 0 0 1
85 0 0 0 0 1 0
86 0 0 0 0 0 1
87 0 0 0 0 1 0
88 0 0 0 0 0 1
89 0 0 0 0 1 0
90 0 0 0 0 0 1
91 0 0 0 0 1 0
92 0 0 0 0 0 1
93 0 0 0 0 1 0
94 0 0 0 0 0 1
95 0 0 0 0 1 0
96 0 0 0 0 0 1
97 0 0 0 0 1 0
98 0 0 0 0 0 1
99 0 0 0 0 1 0
100 0 0 0 0 0 1
101 0 0 0 0 1 0
102 0 0 0 0 0 1
103 0 0 0 0 1 0
104 0 0 0 0 0 1
105 0 0 0 0 1 0
106 0 0 0 0 0 1
107 0 0 0 0 1 0
108 0 0 0 0 0 1
109 0 0 0 0 1 0
110 0 0 0 0 0 1
111 0 0 0 0 1 0
112 0 0 0 0 0 1
113 0 0 0 0 1 0
114 0 0 0 0 0 1
115 0 0 0 0 1 0
116 0 0 0 0 0 1
117 0 0 0 0 1 0
118 0 0 0 0 0 1
119 0 0 0 0 1 0
120 0 0 0 0 0 1
121 0 0 0 0 1 0
122 0 0 0 0 0 1
123 0 0 0 0 1 0
124 0 0 0 0 0 1
125 0 0 0 0 1 0
126 0 0 0 0 0 1
127 0 0 0 0 1 0
128 0 0 0 0 0 1
129 0 0 0 0 1 0
130 0 0 0 0 0 1
131 0 0 0 0 1 0
132 0 0 0 0 0 1
133 0 0 0 0 1 0
134 0 0 0 0 0 1
135 0 0 0 0 1 0
136 0 0 0 0 0 1
137 0 0 0 0 1 0
138 0 0 0 0 0 1
139 0 0 0 0 1 0
140 0 0 0 0 0 1
141 0 0 0 0 1 0
142 0 0 0 0 0 1
143 0 0 0 0 1 0
144 0 0 0 0 0 1
145 0 0 0 0 1 0
146 0 0 0 0 0 1
147 0 0 0 0 1 0
148 0 0 0 0 0 1
149 0 0 0 0 1 0
150 0 0 0 0 0 1
151 0 0 0 0 1 0
152 0 0 0 0 0 1
153 0 0 0 0 1 0
154 0 0 0 0 0 1
155 0 0 0 0 1 0
156 0 0 0 0 0 1
157 0 0 0 0 1 0
158 0 0 0 0 0 1
159 0 0 0 0 1 0
160 0 0 0 0 0 1
161 0 0 0 0 1 0
162 0 0 0 0 0 1
163 0 0 0 0 1 0
164 0 0 0 0 0 1
165 0 0 0 0 1 0
166 0 0 0 0 0 1
167 0 0 0 0 1 0
168 0 0 0 0 0 1
169 0 0 0 0 1 0
170 0 0 0 0 0 1
171 0 0 0 0 1 0
172 0 0 0 0 0 1
173 0 0 0 0 1 0
174 0 0 0 0 0 1
175 0 0 0 0 1 0
176 0 0 0 0 0 1
177 0 0 0 0 1 0
178 0 0 0 0 0 1
179 0 0 0 0 1 0
180 0 0 0 0 0 1
181 0 0 0 0 1 0
182 0 0 0 0 0 1
183 0 0 0 0 1 0
184 0 0 0 0 0 1
185 0 0 0 0 1 0
186 0 0 0 0 0 1
187 0 0 0 0 1 0
188 0 0 0 0 0 1
189 0 0 0 0 1 0
190 0 0 0 0 0 1
191 0 0 0 0 1 0
192 0 0 0 0 0 1
193 0 0 0 0 1 0
194 0 0 0 0 0 1
195 0 0 0 0 1 0
196 0 0 0 0 0 1
197 0 0 0 0 1 0
198 0 0 0 0 0 1
199 0 0 0 0 1 0
200 0 0 0 0 0 1
201 0 0 0 0 1 0
202 0 0 0 0 0 1
203 0 0 0 0 1 0
204 0 0 0 0 0 1
205 0 0 0 0 1 0
206 0 0 0 0 0 1
207 0 0 0 0 1 0
208 0 0 0 0 0 1
209 0 0 0 0 1 0
210 0 0 0 0 0 1
211 0 0 0 0 1 0
212 0 0 0 0 0 1
213 0 0 0 0 1 0
214 0 0 0 0 0 1
215 0 0 0 0 1 0
216 0 0 0 0 0 1
217 0 0 0 0 1 0
218 0 0 0 0 0 1
219 0 0 0 0 1 0
220 0 0 0 0 0 1
221 0 0 0 0 1 0
222 0 0 0 0 0 1
223 0 0 0 0 1 0
224 0 0 0 0 0 1
225 0 0 0 0 1 0
226 0 0 0 0 0 1
227 0 0 0 0 1 0
228 0 0 0 0 0 1
229 0 0 0 0 1 0
230 0 0 0 0 0 1
231 0 0 0 0 1 0
232 0 0 0 0 0 1
233 0 0 0 0 1 0
234 0 0 0 0 0 1
235 0 0 0 0 1 0
236 0 0 0 0 0 1
237 0 0 0 0 1 0
238 0 0 0 0 0 1
239 0 0 0 0 1 0
240 0 0 0 0 0 1
241 0 0 0 0 1 0
242 0 0 0 0 0 1
243 0 0 0 0 1 0
244 0 0 0 0 0 1
245 0 0 0 0 1 0
246 0 0 0 0 0 1
247 0 0 0 0 1 0
248 0 0 0 0 0 1
249 0 0 0 0 1 0
250 0 0 0 0 0 1
251 0 0 0 0 1 0
252 0 0 0 0 0 1
253 0 0 0 0 1 0
254 0 0 0 0 0 1
255 0 0 0 0 1 0
256 0 0 0 0 0 1
257 0 0 0 0 1 0
258 0 0 0 0 0 1
259 0 0 0 0 1 0
260 0 0 0 0 0 1
261 0 0 0 0 1 0
262 0 0 0 0 0 1
263 0 0 0 0 1 0
264 0 0 0 0 0 1
265 0 0 0 0 1 0
266 0 0 0 0 0 1
267 0 0 0 0 1 0
268 0 0 0 0 0 1
269 0 0 0 0 1 0
270 0 0 0 0 0 1
271 0 0 0 0 1 0
272 0 0 0 0 0 1
273 0 0 0 0 1 0
274 0 0 0 0 0 1
275 0 0 0 0 1 0
276 0 0 0 0 0 1
277 0 0 0 0 1 0
278 0 0 0 0 0 1
279 0 0 0 0 1 0
280 0 0 0 0 0 1
281 0 0 0 0 1 0
282 0 0 0 0 0 1
283 0 0 0 0 1 0
284 0 0 0 0 0 1
285 0 0 0 0 1 0
286 0 0 0 0 0 1
287 0 0 0 0 1 0
288 0 0 0 0 0 1
289 0 0 0 0 1 0
290 0 0 0 0 0 1
291 0 0 0 0 1 0
292 0 0 0 0 0 1
293 0 0 0 0 1 0
294 0 0 0 0 0 1
295 0 0 0 0 1 0
296 0 0 0 0 0 1
297 0 0 0 0 1 0
298 0 0 0 0 0 1
299 0 0 0 0 1 0
300 0 0 0 0 0 1
301 0 0 0 0 1 0
302 0 0 0 0 0 1
303 0 0 0 0 1 0
304 0 0 0 0 0 1
305 0 0 0 0 1 0
306 0 0 0 0 0 1
307 0 0 0 0 1 0
308 0 0 0 0 0 1
309 0 0 0 0 1 0
310 0 0 0 0 0 1
311 0 0 0 0 1 0
312 0 0 0 0 0 1
313 0 0 0 0 1 0
314 0 0 0 0 0 1
315 0 0 0 0 1 0
316 0 0 0 0 0 1
317 0 0 0 0 1 0
